c
c start with comments
c
p cnf 26 33
-11 2 -16 -1 9 0
-21 11 -21 18 -4 1 0
4 21 19 18 6 3 0
9 -21 -2 -13 14 0
9 12 -12 24 0
6 -13 -24 21 9 0
2 14 -23 7 -6 0
19 -12 24 0
-17 21 20 0
-5 19 -14 2 5 0
4 -14 8 -21 -25 0
5 21 -7 24 12 0
-23 -21 15 0
-12 -25 16 7 0
-13 -8 -3 -21 7 0
8 12 0
3 -5 -20 -22 15 0
3 22 -2 -1 9 0
-9 1 18 2 -14 0
24 -6 -8 -19 -20 0
14 -17 -24 -3 -4 0
-12 21 1 -10 0
-2 17 -21 5 23 -24 0
22 -12 -12 0
-22 -2 4 -22 12 0
4 26 -14 -16 0
26 -18 1 0
4 24 8 16 0
-4 -9 -12 2 21 0
-23 -4 -23 21 21 0
-16 -9 15 -8 0
17 1 0
8 -14 7 3 7 0